(set-logic QF_S)
(set-option :produce-models true)

(declare-fun s3504 () String)
(declare-fun s3464 () String)
(declare-fun s3951 () String)
(declare-fun temp1_3453_3469 () String)
(declare-fun temp2_3453_3469 () String)
(declare-fun temp1_3453_3474 () String)
(declare-fun s3479 () String)
(declare-fun temp1_3453_3479 () String)
(declare-fun temp2_3453_3479 () String)
(declare-fun s3474 () String)
(declare-fun temp2_3453_3474 () String)
(declare-fun s3453 () String)
(declare-fun s3469 () String)
(declare-fun temp2_3453_3464 () String)
(declare-fun temp1_3453_3464 () String)

(assert (= s3951 "..." ))
(assert (not (= s3453 s3951 )))
(assert (= (str.++ temp1_3453_3479 temp2_3453_3479) s3453) )
(assert (= s3453 s3951 ))
(assert (= (str.len temp2_3453_3469) (str.len s3469) ) )
(assert (= (str.len temp1_3453_3474) (str.len s3474) ) )
(assert (= s3504 "..." ))
(assert (= (str.++ temp1_3453_3469 temp2_3453_3469) s3453) )
(assert (not (= s3469 temp2_3453_3469) ) )
(assert (= (str.++ temp1_3453_3474 temp2_3453_3474) s3453) )
(assert (= (str.++ temp1_3453_3464 temp2_3453_3464) s3453) )
(assert (not (= s3479 temp2_3453_3479) ) )
(assert (not (= s3474 temp1_3453_3474) ) )
(assert (= (str.len temp1_3453_3464) (str.len s3464) ) )
(assert (= (str.len temp2_3453_3479) (str.len s3479) ) )
(assert (not (= s3464 temp1_3453_3464) ) )
(assert (not (= s3453 s3504 )))


(check-sat)
(get-model)
